NAME          
OBJSENSE MIN
ROWS
 N  OBJ
 G  c1
 G  c2
COLUMNS
    x         c1        6
    x         c2        7
    x         OBJ       12
    y         c1        8
    y         c2        12
    y         OBJ       20
RHS
    rhs       c1        100
    rhs       c2        120
RANGES
BOUNDS
 LO bounds    x         0
 PL bounds    x
 LO bounds    y         0
 UP bounds    y         3
ENDATA
